
-10.56
-10.28
-10.02
-9.72
-9.12
-8.16
-6.96
-5.22
-3.18
-2.08
-1.76
-1.64
-1.54
-1.4
-1.36
-1.32
-1.3
-1.26
-1.26
-1.16
-1.14
-1.14
-1.1
-1.1
-1.1
-1.1
-1.1
-1.1
-1.1
-1.1
-1.1
-1.1
-1.1
-1.1
-1.1
-1.1
-1.1
-1.1
-1.1
-1.1
-1.1